SDVRP instances/custom_instances/p03_11_split0.vrp
NAME:p03_11_split
BEST_KNOWN: 0
COMMENT: 0
DIMENSION: 464
CAPACITY: 200
EDGE_WEIGHT_FORMAT: FUNCTION
EDGE_WEIGHT_TYPE: EXACT_2D
NODE_COORD_SECTION
1 0.00000 0.00000
2 -15 21
3 -15 21
4 -15 21
5 14 -18
6 14 -18
7 14 -18
8 14 -18
9 44 42
10 44 42
11 44 42
12 44 42
13 44 42
14 44 42
15 -50 -7
16 -50 -7
17 -50 -7
18 -45 7
19 -45 7
20 -45 7
21 -45 7
22 -45 7
23 -45 7
24 -45 7
25 28 -25
26 28 -25
27 28 -25
28 28 -25
29 28 -25
30 14 36
31 14 36
32 14 36
33 14 36
34 14 36
35 14 36
36 14 36
37 -29 49
38 -29 49
39 -29 49
40 -29 49
41 -21 25
42 -21 25
43 -21 25
44 -21 25
45 -21 25
46 -21 25
47 0 -19
48 0 -19
49 0 -19
50 0 -19
51 0 -19
52 0 -19
53 24 -39
54 24 -39
55 24 -39
56 24 -39
57 -14 -37
58 -14 -37
59 -14 -37
60 -14 -37
61 -14 -37
62 2 42
63 2 42
64 2 42
65 2 42
66 11 4
67 11 4
68 11 4
69 43 -49
70 43 -49
71 43 -49
72 43 -49
73 43 -49
74 43 -49
75 38 -35
76 38 -35
77 38 -35
78 38 -35
79 38 -35
80 48 16
81 48 16
82 48 16
83 48 16
84 48 16
85 -20 27
86 -20 27
87 -20 27
88 38 -45
89 38 -45
90 38 -45
91 38 -45
92 38 -45
93 38 -45
94 38 -45
95 -31 31
96 -31 31
97 -31 31
98 -31 31
99 -31 31
100 -32 -36
101 -32 -36
102 -32 -36
103 -31 -31
104 -31 -31
105 -31 -31
106 -31 -31
107 -31 -31
108 36 -39
109 36 -39
110 36 -39
111 36 -39
112 36 -39
113 36 -39
114 36 -39
115 44 29
116 44 29
117 44 29
118 -33 40
119 -33 40
120 42 -20
121 42 -20
122 42 -20
123 42 -20
124 -42 21
125 -24 43
126 -24 43
127 -24 43
128 -24 43
129 39 39
130 39 39
131 39 39
132 39 39
133 -22 18
134 -22 18
135 -22 18
136 -22 18
137 -22 18
138 -29 -23
139 -29 -23
140 -43 -9
141 -43 -9
142 -43 -9
143 -43 -9
144 -43 -9
145 -43 -9
146 -8 -50
147 -8 -50
148 -8 -50
149 25 -19
150 25 -19
151 25 -19
152 25 -19
153 25 -19
154 25 -19
155 -23 43
156 -23 43
157 -23 43
158 -23 43
159 -23 43
160 -23 43
161 16 47
162 16 47
163 16 47
164 16 47
165 14 22
166 14 22
167 14 22
168 14 22
169 14 22
170 14 22
171 -18 43
172 -18 43
173 -18 43
174 -18 43
175 -18 43
176 -18 43
177 -18 43
178 -1 -31
179 -1 -31
180 -1 -31
181 -1 -31
182 -1 -31
183 -1 -31
184 -1 -31
185 -21 25
186 -21 25
187 -21 25
188 24 17
189 24 17
190 24 17
191 29 -45
192 29 -45
193 -39 -24
194 -39 -24
195 -39 -24
196 -39 -24
197 -39 -24
198 30 25
199 30 25
200 30 25
201 30 25
202 30 25
203 30 25
204 30 25
205 10 -34
206 10 -34
207 10 -34
208 10 -34
209 37 34
210 37 34
211 37 34
212 37 34
213 37 34
214 37 34
215 37 34
216 30 19
217 30 19
218 30 19
219 9 42
220 9 42
221 31 -37
222 31 -37
223 31 -37
224 -42 -3
225 -42 -3
226 -42 -3
227 -42 -3
228 -42 -3
229 -42 -3
230 48 -26
231 48 -26
232 48 -26
233 48 -26
234 48 -26
235 -3 27
236 -3 27
237 -3 27
238 -3 27
239 -3 27
240 -3 27
241 -3 27
242 -3 27
243 20 -5
244 20 -5
245 20 -5
246 39 -4
247 39 -4
248 -23 32
249 -23 32
250 -23 32
251 -23 32
252 6 10
253 6 10
254 6 10
255 24 42
256 24 42
257 24 42
258 24 42
259 -24 -11
260 -24 -11
261 -24 -11
262 -24 -11
263 -24 -11
264 22 -28
265 22 -28
266 22 -28
267 22 -28
268 22 -28
269 22 -28
270 22 -28
271 -23 -47
272 -23 -47
273 -23 -47
274 -23 -47
275 -23 -47
276 -23 -47
277 -23 -47
278 -47 -32
279 -47 -32
280 -47 -32
281 -37 -31
282 -37 -31
283 -37 -31
284 -37 -31
285 30 39
286 30 39
287 30 39
288 30 39
289 30 39
290 24 37
291 24 37
292 24 37
293 24 37
294 24 37
295 24 37
296 24 37
297 -48 46
298 -48 46
299 -48 46
300 16 -14
301 16 -14
302 16 -14
303 28 -5
304 28 -5
305 28 -5
306 28 -5
307 28 -5
308 28 -5
309 28 -5
310 -43 -5
311 -43 -5
312 -43 -5
313 37 35
314 37 35
315 37 35
316 37 35
317 37 35
318 -10 -22
319 -10 -22
320 -10 -22
321 -10 -22
322 -10 -22
323 -10 -22
324 -10 -22
325 20 -11
326 20 -11
327 20 -11
328 20 -11
329 20 -11
330 -38 -48
331 -38 -48
332 -38 -48
333 -38 -48
334 17 -27
335 17 -27
336 17 -27
337 -10 -36
338 -10 -36
339 -10 -36
340 -10 -36
341 -10 -36
342 -10 -36
343 -10 -36
344 5 -11
345 5 -11
346 5 -11
347 5 -11
348 5 -11
349 5 -11
350 5 -11
351 -43 -35
352 -43 -35
353 -43 -35
354 -43 -35
355 -43 -35
356 -43 -35
357 -43 -35
358 -8 48
359 -8 48
360 -8 48
361 -8 48
362 4 -10
363 4 -10
364 4 -10
365 4 -10
366 4 -10
367 -38 -30
368 -38 -30
369 -38 -30
370 -38 -30
371 -38 -30
372 -30 47
373 -30 47
374 -30 47
375 -30 47
376 -30 47
377 20 18
378 20 18
379 20 18
380 11 25
381 11 25
382 11 25
383 -50 18
384 -50 18
385 -50 18
386 -50 18
387 -47 -47
388 -47 -47
389 14 -41
390 14 -41
391 14 -41
392 15 -6
393 15 -6
394 15 -6
395 15 -6
396 15 -6
397 -14 9
398 -14 9
399 -14 9
400 -14 9
401 -14 9
402 -14 9
403 -36 21
404 -36 21
405 -36 21
406 -36 21
407 -36 21
408 -7 11
409 -7 11
410 -7 11
411 43 34
412 43 34
413 43 34
414 43 34
415 43 34
416 43 34
417 43 34
418 40 -17
419 40 -17
420 40 -17
421 40 -17
422 -4 44
423 -4 44
424 -4 44
425 -4 44
426 -4 44
427 31 -43
428 31 -43
429 31 -43
430 31 -43
431 22 -39
432 22 -39
433 22 -39
434 22 -39
435 22 -39
436 22 -39
437 22 -39
438 -19 -31
439 -19 -31
440 -19 -31
441 -19 -31
442 -19 -31
443 -19 -31
444 -35 -29
445 -11 42
446 -11 42
447 -11 42
448 -34 -11
449 -34 -11
450 -34 -11
451 -34 -11
452 -34 -11
453 -34 -11
454 -29 -37
455 -29 -37
456 -29 -37
457 -29 -37
458 -29 -37
459 28 40
460 28 40
461 28 40
462 28 40
463 28 40
464 28 40
DEMAND_SECTION
1 0
2 20
3 10
4 1
5 40
6 2
7 2
8 1
9 40
10 40
11 2
12 2
13 2
14 2
15 40
16 2
17 2
18 40
19 40
20 2
21 2
22 2
23 2
24 1
25 40
26 40
27 2
28 2
29 2
30 20
31 10
32 2
33 2
34 2
35 2
36 1
37 40
38 40
39 2
40 1
41 40
42 20
43 10
44 2
45 2
46 1
47 40
48 2
49 2
50 2
51 2
52 1
53 40
54 40
55 2
56 1
57 40
58 40
59 2
60 2
61 2
62 40
63 20
64 10
65 2
66 40
67 40
68 10
69 40
70 40
71 2
72 2
73 2
74 2
75 40
76 10
77 2
78 2
79 2
80 40
81 20
82 10
83 2
84 2
85 40
86 10
87 1
88 40
89 20
90 10
91 2
92 2
93 2
94 1
95 40
96 40
97 2
98 2
99 1
100 20
101 10
102 2
103 40
104 20
105 2
106 2
107 1
108 40
109 40
110 10
111 2
112 2
113 2
114 1
115 40
116 20
117 10
118 40
119 2
120 40
121 2
122 2
123 2
124 40
125 40
126 40
127 2
128 1
129 40
130 40
131 2
132 1
133 40
134 20
135 2
136 2
137 1
138 20
139 10
140 40
141 40
142 2
143 2
144 2
145 1
146 40
147 2
148 1
149 40
150 20
151 2
152 2
153 2
154 1
155 40
156 40
157 2
158 2
159 2
160 1
161 40
162 20
163 2
164 2
165 40
166 20
167 2
168 2
169 2
170 2
171 40
172 40
173 2
174 2
175 2
176 2
177 1
178 40
179 40
180 2
181 2
182 2
183 2
184 1
185 40
186 40
187 20
188 40
189 40
190 2
191 40
192 20
193 40
194 40
195 2
196 2
197 1
198 40
199 40
200 10
201 2
202 2
203 2
204 2
205 20
206 10
207 2
208 2
209 40
210 40
211 10
212 2
213 2
214 2
215 1
216 40
217 40
218 2
219 40
220 2
221 40
222 40
223 10
224 40
225 10
226 2
227 2
228 2
229 1
230 40
231 20
232 2
233 2
234 1
235 40
236 20
237 10
238 2
239 2
240 2
241 2
242 1
243 40
244 40
245 10
246 40
247 2
248 40
249 20
250 10
251 1
252 40
253 10
254 1
255 40
256 40
257 10
258 2
259 40
260 20
261 10
262 2
263 1
264 40
265 20
266 10
267 2
268 2
269 2
270 2
271 40
272 40
273 10
274 2
275 2
276 2
277 1
278 40
279 40
280 20
281 40
282 40
283 2
284 1
285 40
286 20
287 2
288 2
289 2
290 40
291 20
292 10
293 2
294 2
295 2
296 1
297 40
298 20
299 10
300 40
301 40
302 1
303 40
304 20
305 10
306 2
307 2
308 2
309 1
310 20
311 10
312 2
313 40
314 10
315 2
316 2
317 1
318 40
319 10
320 2
321 2
322 2
323 2
324 1
325 40
326 40
327 10
328 2
329 1
330 40
331 40
332 10
333 2
334 20
335 10
336 2
337 40
338 20
339 2
340 2
341 2
342 2
343 1
344 40
345 20
346 10
347 2
348 2
349 2
350 1
351 40
352 20
353 2
354 2
355 2
356 2
357 1
358 20
359 2
360 2
361 2
362 40
363 20
364 2
365 2
366 1
367 40
368 20
369 2
370 2
371 1
372 40
373 40
374 2
375 2
376 1
377 40
378 40
379 10
380 40
381 40
382 10
383 40
384 2
385 2
386 1
387 40
388 10
389 40
390 10
391 2
392 40
393 20
394 10
395 2
396 2
397 40
398 20
399 10
400 2
401 2
402 2
403 20
404 2
405 2
406 2
407 1
408 20
409 10
410 2
411 40
412 20
413 10
414 2
415 2
416 2
417 2
418 40
419 20
420 10
421 2
422 20
423 10
424 2
425 2
426 2
427 40
428 40
429 2
430 1
431 40
432 20
433 10
434 2
435 2
436 2
437 2
438 40
439 40
440 2
441 2
442 2
443 2
444 40
445 40
446 40
447 1
448 40
449 20
450 10
451 2
452 2
453 2
454 40
455 40
456 2
457 2
458 2
459 40
460 20
461 2
462 2
463 2
464 2
DEPOT_SECTION
1
-1
EOF