SDVRP instances/custom_instances/p03_11_split0.sol
463 -1 3 126 124 127 125 159 156 155 158 157 154 -2 42 85 375 371 373 374 372 39 38 37 36 -6 7 5 4 25 24 27 26 28 148 149 151 152 153 150 -17 18 23 19 22 21 384 385 382 383 123 405 404 402 403 406 -43 40 44 250 247 249 248 445 444 446 -51 47 49 48 50 46 348 344 346 347 349 345 343 361 363 364 362 365 -60 58 57 59 56 339 341 337 340 336 342 338 180 179 178 -63 61 62 64 219 218 31 32 34 33 35 30 29 251 253 -65 242 244 243 392 391 393 -66 188 187 376 377 -67 189 217 216 215 199 201 198 197 203 378 -77 78 76 74 75 109 113 108 107 220 222 -81 82 80 83 79 116 115 114 414 410 413 412 415 -86 84 170 171 176 172 175 173 174 358 357 360 359 424 422 425 423 421 240 239 241 -105 106 104 102 103 100 101 99 454 457 456 455 453 442 439 441 440 -112 111 110 71 69 73 68 72 70 87 92 93 91 89 88 90 269 266 264 268 -118 117 296 297 298 95 98 96 97 94 134 -138 137 354 351 355 356 353 386 387 332 331 330 329 -163 161 162 160 257 255 254 256 289 -164 166 169 165 458 461 459 463 460 462 285 288 287 286 284 -168 167 381 379 380 234 236 237 235 238 408 407 409 -183 182 177 181 146 147 145 276 274 272 273 270 275 271 321 -184 186 45 41 185 132 133 135 136 398 401 400 399 -192 143 139 142 140 447 449 450 448 451 452 -202 200 209 208 214 213 210 211 212 314 313 312 291 293 292 294 295 290 252 -204 205 206 207 388 389 390 334 335 333 301 300 299 -227 225 226 228 223 224 310 311 309 141 144 16 14 15 20 397 396 -258 261 262 259 437 438 317 320 323 319 318 322 -260 195 193 196 194 278 277 279 350 352 370 368 -263 267 53 52 54 55 431 430 432 435 -265 221 427 428 429 426 191 190 433 434 436 -306 307 305 308 303 302 304 245 246 325 324 -315 316 128 130 131 129 9 12 8 10 11 13 411 416 -366 367 369 281 283 282 280 443 -395 394 327 328 326 231 230 229 232 233 120 119 121 122 418 419 417 420 0 





OBJ=
3481.037
BEST_KNOWN=
0.000